(set-logic ALL)
(declare-fun i1 () Int)
(declare-fun it579 () Int)
(declare-fun it580 () Int)
(declare-fun it15 () Int)
(declare-fun it14 () Int)
(declare-fun it581 () Int)
(declare-fun it582 () Int)
(declare-fun it13 () Int)
(declare-fun bt633 () Bool)
(declare-fun bt634 () Bool)
(declare-fun bt635 () Bool)
(declare-fun bt636 () Bool)
(declare-fun it17 () Int)
(declare-fun it16 () Int)
(declare-fun it18 () Int)
(declare-fun bt25 () Bool)
(declare-fun bt28 () Bool)
(declare-fun bt26 () Bool)
(declare-fun bt27 () Bool)
(declare-fun it588 () Int)
(declare-fun it589 () Int)
(declare-fun it590 () Int)
(declare-fun it591 () Int)
(declare-fun bt637 () Bool)
(declare-fun bt638 () Bool)
(declare-fun bt639 () Bool)
(declare-fun bt640 () Bool)
(declare-fun it356 () Int)
(declare-fun it665 () Int)
(declare-fun it666 () Int)
(declare-fun it667 () Int)
(declare-fun it668 () Int)
(declare-fun bt709 () Bool)
(declare-fun bt710 () Bool)
(declare-fun bt711 () Bool)
(declare-fun bt712 () Bool)
(declare-fun bt643 () Bool)
(declare-fun it594 () Int)
(declare-fun it593 () Int)
(declare-fun bt641 () Bool)
(declare-fun it592 () Int)
(declare-fun bt642 () Bool)
(declare-fun bt644 () Bool)
(declare-fun it672 () Int)
(declare-fun it673 () Int)
(declare-fun it674 () Int)
(declare-fun it675 () Int)
(declare-fun bt713 () Bool)
(declare-fun bt714 () Bool)
(declare-fun bt715 () Bool)
(declare-fun bt716 () Bool)
(declare-fun it676 () Int)
(declare-fun it678 () Int)
(declare-fun bt719 () Bool)
(declare-fun bt717 () Bool)
(declare-fun it677 () Int)
(declare-fun bt718 () Bool)
(declare-fun bt720 () Bool)
(assert (= (+ i1 (- 1)) 0))
(assert (= (+ it579 (- 2)) 0))
(assert (= (+ (* it15 (- 1)) it580) 0))
(assert (= (+ it581 (* it14 (- 1))) 0))
(assert (= (+ (* it13 (- 1)) it582) 0))
(assert (or (and false bt633) (not bt633)))
(assert (or (and false (not bt634)) bt634))
(assert (or (and false bt635) (not bt635)))
(assert (or (and false bt636) (not bt636)))
(assert (and bt27
     (not bt26)
     (not bt28)
     (not bt25)
     (= (+ it18 (- 1)) 0)
     (= (+ it579 (- 2)) 0)
     (= (+ (* it16 (- 1)) it582) 0)
     (not bt633)
     (= (+ it581 (* it17 (- 1))) 0)
     bt634
     (not bt635)
     (not bt636)))
(assert (= (+ it588 (- 2)) 0))
(assert (= (+ (* it18 (- 1)) it589) 0))
(assert (= (+ it590 (* it17 (- 1))) 0))
(assert (= (+ (* it16 (- 1)) it591) 0))
(assert (or (and bt27 bt637) (and (not bt27) (not bt637))))
(assert (or (and bt28 bt638) (and (not bt28) (not bt638))))
(assert (or (and (not bt26) (not bt639)) (and bt26 bt639)))
(assert (or (and (not bt25) (not bt640)) (and bt25 bt640)))
(assert (let ((a!1 (+ (* (+ 0 it589) (exp 3 (+ it356 (- 1))) (+ 0 (- 1)))
              (+ 0 it591))))
  (and (> a!1 (+ 0 0))
       (> (+ (* it589 (- 1)) it591) 0)
       (>= (+ (* it588 (- 1)) 2) 0)
       bt637
       (not bt638)
       (>= (* it590 (- 1)) 0)
       (>= (+ it588 (- 2)) 0)
       (not bt640)
       (not bt639)
       (>= (+ it356 (- 1)) 0))))
(assert (= (+ (* it588 (- 1)) it665) 0))
(assert (= (+ (* (+ 0 it589) (exp 3 it356) (+ 0 (- 1))) (+ 0 it666))
   (+ 0 0)))
(assert (= (+ (* it590 (- 1)) it667) 0))
(assert (= (+ it668 (* it591 (- 1))) 0))
(assert (or (and false (not bt709)) bt709))
(assert (or (and false bt710) (not bt710)))
(assert (or (and false bt711) (not bt711)))
(assert (or (and false bt712) (not bt712)))
(assert (and (not bt711)
     (not bt644)
     bt642
     (= (+ it665 (- 2)) 0)
     (= (+ (* it592 (- 1)) it666) 0)
     bt641
     (= (+ (* it593 (- 1)) it667) 0)
     (> (+ it668 (* it666 (- 1))) 0)
     bt709
     (= (+ it668 (* it594 (- 1))) 0)
     (not bt710)
     (not bt643)
     (not bt712)))
(assert (= (+ it672 (- 2)) 0))
(assert (= (+ (* it592 (- 1)) it673) 0))
(assert (= (+ (* it593 (- 1)) it674) 0))
(assert (= (+ it675 (* it594 (- 1))) 0))
(assert (or (and (not bt713) (not bt642)) (and bt642 bt713)))
(assert (or (and bt714 bt641) (and (not bt714) (not bt641))))
(assert (or (and (not bt715) (not bt643)) (and bt643 bt715)))
(assert (or (and (not bt644) (not bt716)) (and bt644 bt716)))
(assert (or (> it674 0)
    bt720
    (not bt713)
    (not bt718)
    (distinct (+ (* it677 (- 1)) it674) 0)
    (not bt714)
    bt717
    bt715
    bt716
    (not bt719)
    (distinct (+ it675 (* it678 (- 1))) 0)
    (distinct (+ (* it676 (- 1)) it673) 0)
    (distinct (+ it672 (- 2)) 0)))
(assert (let ((a!1 (and (= (+ it675 (* it678 (- 1))) 0) bt717))
      (a!5 (and bt720 (= (+ it675 (* it678 (- 1))) 0)))
      (a!9 (and (= (+ it675 (* it678 (- 1))) 0) (not bt717)))
      (a!19 (and (= (+ it675 (* it678 (- 1))) 0)
                 (= (+ (* it676 (- 1)) (* it673 2)) 0)
                 bt717
                 (not bt720)
                 (not bt718)
                 (= (+ (* it677 (- 1)) it674) 0)
                 bt719)))
(let ((a!2 (and a!1 (= (+ (* it676 (- 1)) it673) 0)))
      (a!6 (and a!5 (not bt717) (= (+ (* it676 (- 1)) it673) 0) (not bt719)))
      (a!10 (and a!9 (= (+ (* it676 (- 1)) it673) 0)))
      (a!12 (and a!5 bt717 (= (+ (* it676 (- 1)) it673) 0) (not bt719)))
      (a!17 (and a!9
                 (= (+ it676 (- 1)) 0)
                 (not bt719)
                 (not bt720)
                 (= (+ (* it677 (- 1)) it674) 0)
                 bt718))
      (a!18 (and a!1
                 (not bt720)
                 (= (+ (* it676 (- 1)) (* it673 3)) 0)
                 (= (+ (* it677 (- 1)) it674) 0)
                 bt718
                 bt719)))
(let ((a!3 (and a!2
                (not bt719)
                (not bt720)
                (= (+ (* it677 (- 1)) it674) 0)
                bt718))
      (a!7 (and a!6 (not bt718) (= (+ (* it677 (- 1)) it674) 0)))
      (a!11 (and (and a!10 (not bt719) (not bt720))
                 (not bt718)
                 (= (+ (* it677 (- 1)) it674) 0)))
      (a!13 (and a!12 (= (+ (* it677 (- 1)) it674) 0) bt718))
      (a!14 (and a!2
                 (not bt720)
                 (not bt718)
                 (= (+ (* it677 (- 1)) it674) 0)
                 bt719))
      (a!15 (and a!6 (= (+ (* it677 (- 1)) it674) 0) bt718))
      (a!16 (and a!12 (not bt718) (= (+ (* it677 (- 1)) it674) 0)))
      (a!20 (and (and a!10 (not bt720))
                 (not bt718)
                 (= (+ (* it677 (- 1)) it674) 0)
                 bt719))
      (a!21 (and (and a!10 (not bt719) (not bt720))
                 (= (+ (* it677 (- 1)) it674) 0)
                 bt718))
      (a!22 (and (and a!10 (not bt720))
                 (= (+ (* it677 (- 1)) it674) 0)
                 bt718
                 bt719)))
(let ((a!4 (or (not bt713)
               a!3
               bt714
               bt715
               bt716
               (<= (+ it675 (* it673 (- 1))) 0)))
      (a!8 (or (not bt713)
               a!7
               (> (+ it675 (* it673 (- 1))) 0)
               bt714
               bt715
               bt716)))
  (and (= (+ it672 (- 2)) 0)
       a!4
       a!8
       (or (not bt713) a!11 bt714 bt715 (not bt716))
       (or (not bt713) a!13 bt715 (not bt714) (not bt716))
       (or a!13 (> it673 0) bt714 bt715 (not bt716) bt713)
       (or (not bt713) a!14 (not bt715) bt716 (not bt714))
       (or a!15 bt715 (not bt714) (not bt716) bt713)
       (or a!16 bt714 bt715 (not bt716) (<= it673 0) bt713)
       (or a!17 bt715 bt716 (not bt714) bt713)
       (or a!18 (not bt713) (not bt715) bt714 bt716)
       (or a!11 bt714 bt715 bt716 bt713)
       (or a!19 (not bt715) bt714 bt716 bt713)
       (or (not bt713) (<= it674 0) bt715 bt716 (not bt714) a!20)
       (or a!21 (not bt715) bt716 (not bt714) bt713)
       (or (not bt713) (> it674 0) bt715 bt716 a!22 (not bt714))))))))
(check-sat)
